NAME: n100q25I.tsp, 100 nodes, semilla 888
COMMENT: Problema aleatorio de norma euclidea
DIMENSION: 100
CAPACITY: 25
EDGE_WEIGHT_TYPE: EUC_2D
NODE_COORD_SECTION
1   0.0000   0.0000
2 317.0000 439.0000
3 424.0000 411.0000
4 -174.0000 426.0000
5  38.0000 211.0000
6 117.0000 -53.0000
7 179.0000  85.0000
8 -145.0000 -67.0000
9 -314.0000 342.0000
10 385.0000 487.0000
11 -128.0000 -456.0000
12 -95.0000 133.0000
13 449.0000 -253.0000
14 389.0000 271.0000
15 -379.0000 468.0000
16  13.0000 -151.0000
17 223.0000 -422.0000
18 356.0000 -437.0000
19 309.0000  78.0000
20 103.0000 -391.0000
21 -20.0000 -109.0000
22  98.0000 485.0000
23 405.0000 -153.0000
24  15.0000 443.0000
25 288.0000 472.0000
26 -248.0000 -146.0000
27 184.0000  58.0000
28 479.0000 217.0000
29 312.0000 -160.0000
30  -4.0000 -431.0000
31 -348.0000 -214.0000
32 -121.0000 -311.0000
33 131.0000 342.0000
34 -258.0000 -362.0000
35  43.0000 265.0000
36 -119.0000 500.0000
37 -371.0000 343.0000
38 388.0000 296.0000
39  10.0000 442.0000
40 -307.0000 352.0000
41 -297.0000 -16.0000
42 398.0000 -313.0000
43  85.0000 -304.0000
44 -187.0000 494.0000
45 413.0000  22.0000
46 139.0000 -57.0000
47 -14.0000  45.0000
48 250.0000  91.0000
49 382.0000  84.0000
50 -437.0000 288.0000
51 -198.0000 436.0000
52 -234.0000 371.0000
53 -160.0000 -295.0000
54 162.0000 -228.0000
55 -269.0000  71.0000
56 144.0000 -286.0000
57 442.0000 462.0000
58  11.0000 -356.0000
59 -472.0000 281.0000
60 307.0000 458.0000
61 344.0000 -252.0000
62 -485.0000 -261.0000
63 287.0000 -43.0000
64 -137.0000 184.0000
65 -158.0000 -443.0000
66 410.0000 201.0000
67 -382.0000 -458.0000
68 -49.0000 -58.0000
69 477.0000 446.0000
70 -434.0000 441.0000
71 231.0000 117.0000
72 -183.0000  34.0000
73 329.0000 -404.0000
74 -217.0000 -253.0000
75 -72.0000 -338.0000
76 481.0000 -410.0000
77   9.0000 -421.0000
78  20.0000 131.0000
79 -84.0000 419.0000
80  38.0000 -154.0000
81 -242.0000 152.0000
82  76.0000 201.0000
83 -244.0000 -441.0000
84  51.0000 -314.0000
85  20.0000 -479.0000
86 -450.0000 -105.0000
87  30.0000 -172.0000
88 -24.0000 265.0000
89 -268.0000  15.0000
90 178.0000 -450.0000
91 -138.0000 -57.0000
92 -489.0000 -182.0000
93 -72.0000 -213.0000
94 -179.0000 129.0000
95 -72.0000 190.0000
96 -481.0000 175.0000
97 387.0000 206.0000
98 -375.0000 -128.0000
99 -129.0000 -279.0000
100 268.0000 -247.0000
DISPLAY_DATA_SECTION:
 1  250  250
 2  408  469
 3  462  455
 4  163  463
 5  269  355
 6  308  223
 7  339  292
 8  177  216
 9   93  421
10  442  493
11  186   22
12  202  316
13  474  123
14  444  385
15   60  484
16  256  174
17  361   39
18  428   31
19  404  289
20  301   54
21  240  195
22  299  492
23  452  173
24  257  471
25  394  486
26  126  177
27  342  279
28  489  358
29  406  170
30  248   34
31   76  143
32  189   94
33  315  421
34  121   69
35  271  382
36  190  500
37   64  421
38  444  398
39  255  471
40   96  426
41  101  242
42  449   93
43  292   98
44  156  497
45  456  261
46  319  221
47  243  272
48  375  295
49  441  292
50   31  394
51  151  468
52  133  435
53  170  102
54  331  136
55  115  285
56  322  107
57  471  481
58  255   72
59   14  390
60  403  479
61  422  124
62    7  119
63  393  228
64  181  342
65  171   28
66  455  350
67   59   21
68  225  221
69  488  473
70   33  470
71  365  308
72  158  267
73  414   48
74  141  123
75  214   81
76  490   45
77  254   39
78  260  315
79  208  459
80  269  173
81  129  326
82  288  350
83  128   29
84  275   93
85  260   10
86   25  197
87  265  164
88  238  382
89  116  257
90  339   25
91  181  221
92    5  159
93  214  143
94  160  314
95  214  345
96    9  337
97  443  353
98   62  186
99  185  110
100  384  126
DEMAND_SECTION
1 4
2 -6
3 -8
4 3
5 1
6 -8
7 -3
8 9
9 -8
10 9
11 -8
12 -1
13 -6
14 -6
15 -7
16 -9
17 0
18 -4
19 8
20 -7
21 6
22 -2
23 -8
24 5
25 7
26 -3
27 0
28 -7
29 1
30 9
31 9
32 -7
33 10
34 2
35 6
36 -2
37 4
38 -3
39 -1
40 -9
41 -2
42 -9
43 6
44 -4
45 10
46 7
47 5
48 9
49 2
50 -4
51 0
52 -5
53 8
54 -4
55 2
56 7
57 4
58 6
59 -6
60 8
61 -4
62 -4
63 -5
64 -2
65 0
66 -7
67 9
68 10
69 6
70 -6
71 5
72 -6
73 9
74 -8
75 -3
76 -10
77 3
78 9
79 1
80 -6
81 5
82 -4
83 -4
84 -1
85 -4
86 -5
87 -8
88 2
89 -2
90 -1
91 5
92 10
93 1
94 7
95 -9
96 2
97 2
98 9
99 -8
100 2
EOF